Welcome to the CBC MILP Solver 
Version: 2.10.3 
Build Date: Dec 15 2019 

command line - /home/greff/.local/lib/python3.10/site-packages/pulp/solverdir/cbc/linux/64/cbc /tmp/89e2660f212142309cbc16fcd12174b5-pulp.mps -max -sec 1800 -timeMode elapsed -branch -printingOptions all -solution /tmp/89e2660f212142309cbc16fcd12174b5-pulp.sol (default strategy 1)
At line 2 NAME          MODEL
At line 3 ROWS
At line 1635092 COLUMNS
At line 11429050 RHS
At line 13064138 BOUNDS
At line 14697771 ENDATA
Problem MODEL has 1635087 rows, 1633632 columns and 4898652 elements
Coin0008I MODEL read with 0 errors
seconds was changed from 1e+100 to 1800
Option for timeMode changed from cpu to elapsed
Continuous objective value is 6.63954e+06 - 16.79 seconds
Cgl0002I 1627996 variables fixed
Cgl0004I processed model has 2374 rows, 5414 columns (5414 integer (5414 of which binary)) and 9752 elements
Cbc0038I Initial state - 0 integers unsatisfied sum - 0
Cbc0038I Solution found of -6.63954e+06
Cbc0038I Before mini branch and bound, 5414 integers at bound fixed and 0 continuous
Cbc0038I Mini branch and bound did not improve solution (24.80 seconds)
Cbc0038I After 24.87 seconds - Feasibility pump exiting with objective of -6.63954e+06 - took 0.29 seconds
Cbc0012I Integer solution of -6639543.4 found by feasibility pump after 0 iterations and 0 nodes (24.88 seconds)
Cbc0038I Full problem 2374 rows 5414 columns, reduced to 0 rows 0 columns
Cbc0001I Search completed - best objective -6639543.432906386, took 0 iterations and 0 nodes (25.49 seconds)
Cbc0035I Maximum depth 0, 3038 variables fixed on reduced cost
Cuts at root node changed objective from -6.63954e+06 to -6.63954e+06
Probing was tried 0 times and created 0 cuts of which 0 were active after adding rounds of cuts (0.000 seconds)
Gomory was tried 0 times and created 0 cuts of which 0 were active after adding rounds of cuts (0.000 seconds)
Knapsack was tried 0 times and created 0 cuts of which 0 were active after adding rounds of cuts (0.000 seconds)
Clique was tried 0 times and created 0 cuts of which 0 were active after adding rounds of cuts (0.000 seconds)
MixedIntegerRounding2 was tried 0 times and created 0 cuts of which 0 were active after adding rounds of cuts (0.000 seconds)
FlowCover was tried 0 times and created 0 cuts of which 0 were active after adding rounds of cuts (0.000 seconds)
TwoMirCuts was tried 0 times and created 0 cuts of which 0 were active after adding rounds of cuts (0.000 seconds)
ZeroHalf was tried 0 times and created 0 cuts of which 0 were active after adding rounds of cuts (0.000 seconds)

Result - Optimal solution found

Objective value:                6639543.43290639
Enumerated nodes:               0
Total iterations:               0
Time (CPU seconds):             26.16
Time (Wallclock seconds):       29.98

Option for printingOptions changed from normal to all
Total time (CPU seconds):       33.52   (Wallclock seconds):       38.12

